NAME          BLANK   
ROWS
 N  OBJROW
 L  R0000000
COLUMNS
    C0000000  OBJROW     -356.         R0000000  872.        
    C0000001  OBJROW     -662.         R0000000  403.        
    C0000002  OBJROW     -149.         R0000000  128.        
    C0000003  OBJROW     -780.         R0000000  449.        
    C0000004  OBJROW     -134.         R0000000  601.        
    C0000005  OBJROW     -36.          R0000000  450.        
    C0000006  OBJROW     -479.         R0000000  359.        
    C0000007  OBJROW     -420.         R0000000  251.        
    C0000008  OBJROW     -735.         R0000000  311.        
    C0000009  OBJROW     -258.         R0000000  76.         
    C0000010  OBJROW     -680.         R0000000  269.        
    C0000011  OBJROW     -539.         R0000000  29.         
    C0000012  OBJROW     -894.         R0000000  846.        
    C0000013  OBJROW     -901.         R0000000  181.        
    C0000014  OBJROW     -956.         R0000000  236.        
    C0000015  OBJROW     -159.         R0000000  294.        
    C0000016  OBJROW     -2.           R0000000  197.        
    C0000017  OBJROW     -777.         R0000000  382.        
    C0000018  OBJROW     -200.         R0000000  435.        
    C0000019  OBJROW     -259.         R0000000  647.        
    C0000020  OBJROW     -606.         R0000000  36.         
    C0000021  OBJROW     -221.         R0000000  117.        
    C0000022  OBJROW     -590.         R0000000  310.        
    C0000023  OBJROW     -43.          R0000000  821.        
    C0000024  OBJROW     -559.         R0000000  932.        
    C0000025  OBJROW     -531.         R0000000  958.        
    C0000026  OBJROW     -735.         R0000000  148.        
    C0000027  OBJROW     -491.         R0000000  39.         
    C0000028  OBJROW     -455.         R0000000  828.        
    C0000029  OBJROW     -195.         R0000000  421.        
    C0000030  OBJROW     -375.         R0000000  806.        
    C0000031  OBJROW     -987.         R0000000  109.        
    C0000032  OBJROW     -687.         R0000000  564.        
    C0000033  OBJROW     -28.          R0000000  182.        
    C0000034  OBJROW     -743.         R0000000  580.        
    C0000035  OBJROW     -780.         R0000000  30.         
    C0000036  OBJROW     -7.           R0000000  685.        
    C0000037  OBJROW     -154.         R0000000  174.        
    C0000038  OBJROW     -528.         R0000000  941.        
    C0000039  OBJROW     -19.          R0000000  174.        
    C0000040  OBJROW     -544.         R0000000  931.        
    C0000041  OBJROW     -505.         R0000000  64.         
    C0000042  OBJROW     -650.         R0000000  3.          
    C0000043  OBJROW     -575.         R0000000  600.        
    C0000044  OBJROW     -331.         R0000000  395.        
    C0000045  OBJROW     -455.         R0000000  454.        
    C0000046  OBJROW     -420.         R0000000  429.        
    C0000047  OBJROW     -847.         R0000000  28.         
    C0000048  OBJROW     -98.          R0000000  718.        
    C0000049  OBJROW     -712.         R0000000  725.        
RHS
    RHS       R0000000  10309.      
BOUNDS
 BV BOUND     C0000000  1.          
 BV BOUND     C0000001  1.          
 BV BOUND     C0000002  1.          
 BV BOUND     C0000003  1.          
 BV BOUND     C0000004  1.          
 BV BOUND     C0000005  1.          
 BV BOUND     C0000006  1.          
 BV BOUND     C0000007  1.          
 BV BOUND     C0000008  1.          
 BV BOUND     C0000009  1.          
 BV BOUND     C0000010  1.          
 BV BOUND     C0000011  1.          
 BV BOUND     C0000012  1.          
 BV BOUND     C0000013  1.          
 BV BOUND     C0000014  1.          
 BV BOUND     C0000015  1.          
 BV BOUND     C0000016  1.          
 BV BOUND     C0000017  1.          
 BV BOUND     C0000018  1.          
 BV BOUND     C0000019  1.          
 BV BOUND     C0000020  1.          
 BV BOUND     C0000021  1.          
 BV BOUND     C0000022  1.          
 BV BOUND     C0000023  1.          
 BV BOUND     C0000024  1.          
 BV BOUND     C0000025  1.          
 BV BOUND     C0000026  1.          
 BV BOUND     C0000027  1.          
 BV BOUND     C0000028  1.          
 BV BOUND     C0000029  1.          
 BV BOUND     C0000030  1.          
 BV BOUND     C0000031  1.          
 BV BOUND     C0000032  1.          
 BV BOUND     C0000033  1.          
 BV BOUND     C0000034  1.          
 BV BOUND     C0000035  1.          
 BV BOUND     C0000036  1.          
 BV BOUND     C0000037  1.          
 BV BOUND     C0000038  1.          
 BV BOUND     C0000039  1.          
 BV BOUND     C0000040  1.          
 BV BOUND     C0000041  1.          
 BV BOUND     C0000042  1.          
 BV BOUND     C0000043  1.          
 BV BOUND     C0000044  1.          
 BV BOUND     C0000045  1.          
 BV BOUND     C0000046  1.          
 BV BOUND     C0000047  1.          
 BV BOUND     C0000048  1.          
 BV BOUND     C0000049  1.          
ENDATA
